VACCINE = Vaccine(1..4);
m = 24;
age = [ADULT, CHILD, CHILD, ADULT, SENIOR, ANCIENT, CHILD, ADULT, ANCIENT, AGED, BABY, ADULT, YOUTH, AGED, BABY, YOUTH, ADULT, YOUTH, SENIOR, BABY, YOUTH, CHILD, CHILD, SENIOR];
gender = [FEMALE, FEMALE, OTHER, OTHER, MALE, MALE, FEMALE, OTHER, OTHER, FEMALE, FEMALE, FEMALE, FEMALE, MALE, MALE, OTHER, FEMALE, MALE, OTHER, MALE, MALE, OTHER, OTHER, FEMALE];
health = [GOOD, POOR, COMPROMISED, POOR, COMPROMISED, POOR, COMPROMISED, GOOD, POOR, COMPROMISED, POOR, GOOD, COMPROMISED, COMPROMISED, COMPROMISED, POOR, COMPROMISED, POOR, COMPROMISED, COMPROMISED, GOOD, GOOD, GOOD, GOOD];
exposure = [HIGH, EXTREME, EXTREME, EXTREME, AVERAGE, AVERAGE, HIGH, HIGH, HIGH, LOW, AVERAGE, EXTREME, LOW, HIGH, LOW, LOW, AVERAGE, HIGH, EXTREME, LOW, HIGH, EXTREME, AVERAGE, LOW];
size = [12, 9, 14, 13, 14, 10, 11, 11, 14, 9, 9, 12, 9, 10, 14, 13, 14, 10, 11, 14, 9, 10, 14, 13];
minsize = 9;
age_group_min = [0, 0, 0, 0, 0, 0, 0];
age_group_max = [18, 16, 18, 8, 19, 22, 14];
max_people_diff = 144;
max_share_vaccines = 3;
health_information = {1, 23, 24};
exposure_information = {9, 16, 21, 24};